NAME : local_4
TYPE : ATSP
DIMENSION : 11
EDGE_WEIGHT_TYPE : EXPLICIT
EDGE_WEIGHT_FORMAT : FULL_MATRIX
EDGE_WEIGHT_SECTION
0 10000000 10000000 596 10000000 10000000 215 472 753 724 244 
0 0 322 10000000 338 306 10000000 10000000 978 10000000 10000000 
0 322 0 10000000 116 273 10000000 10000000 10000000 10000000 10000000 
0 10000000 10000000 0 10000000 10000000 522 642 10000000 534 467 
0 338 116 10000000 0 177 10000000 10000000 914 10000000 10000000 
0 306 273 10000000 177 0 10000000 10000000 776 10000000 10000000 
0 10000000 10000000 522 10000000 10000000 0 291 960 741 328 
0 10000000 10000000 642 10000000 10000000 291 0 10000000 984 611 
0 978 10000000 10000000 914 776 960 10000000 0 10000000 904 
0 10000000 10000000 534 10000000 10000000 741 984 10000000 0 481 
0 10000000 10000000 10000000 10000000 10000000 10000000 10000000 10000000 10000000 0 
EOF